(set-logic HORN)
(set-info :source |
  Benchmark: ../golem/build/RealCodeNested/originalcodeInterpretOpenSMTsceleton.c
  Generated by Korn 0.4 https://github.com/gernst/korn
|)


(declare-fun $main_sum3 (Int Int Int Int Int Int Int Int Int Int Int Int Int) Bool)
(declare-fun __assert_fail (Int Int Int Int) Bool)
(declare-fun $main_inv2 (Int Int Int Int Int Int Int Int Int Int Int Int Int) Bool)
(declare-fun $__VERIFIER_assert_pre (Int) Bool)
(declare-fun $main_sum1 (Int Int Int Int Int Int Int Int Int Int Int Int Int) Bool)
(declare-fun $__VERIFIER_assert_if1 (Int Int) Bool)
(declare-fun $main_if2 (Int Int Int Int Int Int Int Int Int Int Int Int Int Int Int Int Int Int Int Int Int Int Int Int Int Int) Bool)
(declare-fun $main_sum2 (Int Int Int Int Int Int Int Int Int Int Int Int Int) Bool)
(declare-fun $main_inv3 (Int Int Int Int Int Int Int Int Int Int Int Int Int) Bool)
(declare-fun __VERIFIER_assert (Int) Bool)
(declare-fun $__assert_fail_pre (Int Int Int Int) Bool)
(declare-fun $main_if3 (Int Int Int Int Int Int Int Int Int Int Int Int Int Int Int Int Int Int Int Int Int Int Int Int Int Int) Bool)
(declare-fun $main_inv1 (Int Int Int Int Int Int Int Int Int Int Int Int Int) Bool)
(declare-fun $__VERIFIER_assert_ERROR (Int Int) Bool)

; label ERROR
(assert
  (forall ((cond!1 Int))
    (=> (and (not (not (= cond!1 0)))
             ($__VERIFIER_assert_pre cond!1))
        ($__VERIFIER_assert_ERROR cond!1 cond!1))))

; error
(assert
  (forall ((cond!1 Int) (cond!2 Int))
    (=> (and ($__VERIFIER_assert_ERROR cond!1 cond!2))
        false)))

; if else
(assert
  (forall ((cond!1 Int))
    (=> (and (not (not (not (= cond!1 0))))
             ($__VERIFIER_assert_pre cond!1))
        ($__VERIFIER_assert_if1 cond!1 cond!1))))

; post __VERIFIER_assert
(assert
  (forall ((cond!1 Int) (cond!3 Int))
    (=> (and ($__VERIFIER_assert_if1 cond!1 cond!3))
        (__VERIFIER_assert cond!1))))

; loop entry $main_inv1 (line 20)
(assert
  (forall ((newArgs!10 Int) (i!8 Int) (oldArg!12 Int) (nf!16 Int) (res!6 Int) (functionsToCheck!4 Int) (num!7 Int) (var!9 Int) (oldArgs!5 Int) (hasClashResult!13 Int) (name!14 Int) (substMap!11 Int) (found!15 Int))
    (=> (and (= oldArg!12 0)
             (= substMap!11 0)
             (= newArgs!10 0)
             (= var!9 0)
             (= i!8 0)
             (= num!7 0)
             (= res!6 0)
             (<= 10 oldArgs!5)
             (<= oldArgs!5 100)
             (<= 10 functionsToCheck!4)
             (<= functionsToCheck!4 100))
        ($main_inv1 functionsToCheck!4 oldArgs!5 res!6 num!7 i!8 var!9 newArgs!10 substMap!11 oldArg!12 hasClashResult!13 name!14 found!15 nf!16))))

; loop term $main_sum1 (line 20)
(assert
  (forall ((oldArgs!18 Int) (functionsToCheck!17 Int) (var!22 Int) (nf!29 Int) (found!28 Int) (name!27 Int) (i!21 Int) (oldArg!25 Int) (newArgs!23 Int) (res!19 Int) (hasClashResult!26 Int) (num!20 Int) (substMap!24 Int))
    (=> (and (not (< i!21 functionsToCheck!17))
             ($main_inv1 functionsToCheck!17 oldArgs!18 res!19 num!20 i!21 var!22 newArgs!23 substMap!24 oldArg!25 hasClashResult!26 name!27 found!28 nf!29))
        ($main_sum1 functionsToCheck!17 oldArgs!18 res!19 num!20 i!21 var!22 newArgs!23 substMap!24 oldArg!25 hasClashResult!26 name!27 found!28 nf!29))))

; loop entry $main_inv2 (line 23)
(assert
  (forall ((oldArgs!18 Int) (functionsToCheck!17 Int) (var!22 Int) (nf!29 Int) (found!28 Int) (name!27 Int) (i!21 Int) (oldArg!25 Int) (newArgs!23 Int) (res!19 Int) (hasClashResult!26 Int) (num!20 Int) (substMap!24 Int))
    (=> (and (> hasClashResult!26 0)
             (< i!21 functionsToCheck!17)
             ($main_inv1 functionsToCheck!17 oldArgs!18 res!19 num!20 i!21 var!22 newArgs!23 substMap!24 oldArg!25 hasClashResult!26 name!27 found!28 nf!29))
        ($main_inv2 functionsToCheck!17 oldArgs!18 res!19 num!20 i!21 var!22 newArgs!23 substMap!24 oldArg!25 hasClashResult!26 name!27 found!28 nf!29))))

; loop term $main_sum2 (line 23)
(assert
  (forall ((name!40 Int) (num!33 Int) (i!34 Int) (newArgs!36 Int) (substMap!37 Int) (var!35 Int) (found!41 Int) (oldArgs!31 Int) (res!32 Int) (oldArg!38 Int) (functionsToCheck!30 Int) (hasClashResult!39 Int) (nf!42 Int))
    (=> (and (not (< oldArg!38 oldArgs!31))
             ($main_inv2 functionsToCheck!30 oldArgs!31 res!32 num!33 i!34 var!35 newArgs!36 substMap!37 oldArg!38 hasClashResult!39 name!40 found!41 nf!42))
        ($main_sum2 functionsToCheck!30 oldArgs!31 res!32 num!33 i!34 var!35 newArgs!36 substMap!37 oldArg!38 hasClashResult!39 name!40 found!41 nf!42))))

; loop entry $main_inv3 (line 26)
(assert
  (forall ((name!40 Int) (num!33 Int) (i!34 Int) (newArgs!36 Int) (substMap!37 Int) (var!35 Int) (found!41 Int) (oldArgs!31 Int) (res!32 Int) (oldArg!38 Int) (functionsToCheck!30 Int) (hasClashResult!39 Int) (nf!42 Int))
    (=> (and (< oldArg!38 oldArgs!31)
             ($main_inv2 functionsToCheck!30 oldArgs!31 res!32 num!33 i!34 var!35 newArgs!36 substMap!37 oldArg!38 hasClashResult!39 name!40 found!41 nf!42))
        ($main_inv3 functionsToCheck!30 oldArgs!31 res!32 num!33 i!34 var!35 newArgs!36 substMap!37 oldArg!38 hasClashResult!39 name!40 found!41 nf!42))))

; loop term $main_sum3 (line 26)
(assert
  (forall ((hasClashResult!52 Int) (substMap!50 Int) (num!46 Int) (i!47 Int) (oldArgs!44 Int) (functionsToCheck!43 Int) (oldArg!51 Int) (name!53 Int) (var!48 Int) (res!45 Int) (found!54 Int) (nf!55 Int) (newArgs!49 Int))
    (=> (and (not (> found!54 0))
             ($main_inv3 functionsToCheck!43 oldArgs!44 res!45 num!46 i!47 var!48 newArgs!49 substMap!50 oldArg!51 hasClashResult!52 name!53 found!54 nf!55))
        ($main_sum3 functionsToCheck!43 oldArgs!44 res!45 num!46 i!47 var!48 newArgs!49 substMap!50 oldArg!51 hasClashResult!52 name!53 found!54 nf!55))))

; if then
(assert
  (forall ((hasClashResult!52 Int) (substMap!50 Int) (num!46 Int) (i!47 Int) (oldArgs!44 Int) (functionsToCheck!43 Int) (oldArg!51 Int) (name!53 Int) (var!48 Int) (res!45 Int) (found!54 Int) (nf!55 Int) (newArgs!49 Int))
    (=> (and (> nf!55 0)
             (> found!54 0)
             ($main_inv3 functionsToCheck!43 oldArgs!44 res!45 num!46 i!47 var!48 newArgs!49 substMap!50 oldArg!51 hasClashResult!52 name!53 found!54 nf!55))
        ($main_if2 functionsToCheck!43 oldArgs!44 res!45 num!46 i!47 var!48 newArgs!49 substMap!50 oldArg!51 hasClashResult!52 name!53 found!54 nf!55 functionsToCheck!43 oldArgs!44 res!45 (+ num!46 1) i!47 num!46 newArgs!49 substMap!50 oldArg!51 hasClashResult!52 num!46 0 nf!55))))

; if else
(assert
  (forall ((hasClashResult!52 Int) (substMap!50 Int) (num!46 Int) (i!47 Int) (oldArgs!44 Int) (functionsToCheck!43 Int) (oldArg!51 Int) (name!53 Int) (var!48 Int) (res!45 Int) (found!54 Int) (nf!55 Int) (newArgs!49 Int))
    (=> (and (not (> nf!55 0))
             (> found!54 0)
             ($main_inv3 functionsToCheck!43 oldArgs!44 res!45 num!46 i!47 var!48 newArgs!49 substMap!50 oldArg!51 hasClashResult!52 name!53 found!54 nf!55))
        ($main_if2 functionsToCheck!43 oldArgs!44 res!45 num!46 i!47 var!48 newArgs!49 substMap!50 oldArg!51 hasClashResult!52 name!53 found!54 nf!55 functionsToCheck!43 oldArgs!44 res!45 (+ num!46 1) i!47 num!46 newArgs!49 substMap!50 oldArg!51 hasClashResult!52 num!46 found!54 nf!55))))

; forwards $main_inv3 (line 26)
(assert
  (forall ((hasClashResult!52 Int) (hasClashResult!65 Int) (nf!68 Int) (substMap!50 Int) (i!47 Int) (functionsToCheck!43 Int) (res!58 Int) (i!60 Int) (name!53 Int) (num!59 Int) (var!61 Int) (res!45 Int) (found!54 Int) (nf!55 Int) (newArgs!49 Int) (substMap!63 Int) (num!46 Int) (functionsToCheck!56 Int) (found!67 Int) (oldArgs!44 Int) (oldArg!64 Int) (newArgs!62 Int) (name!66 Int) (oldArg!51 Int) (oldArgs!57 Int) (var!48 Int))
    (=> (and ($main_if2 functionsToCheck!43 oldArgs!44 res!45 num!46 i!47 var!48 newArgs!49 substMap!50 oldArg!51 hasClashResult!52 name!53 found!54 nf!55 functionsToCheck!56 oldArgs!57 res!58 num!59 i!60 var!61 newArgs!62 substMap!63 oldArg!64 hasClashResult!65 name!66 found!67 nf!68))
        ($main_inv3 functionsToCheck!56 oldArgs!57 res!58 num!59 i!60 var!61 newArgs!62 substMap!63 oldArg!64 hasClashResult!65 name!66 found!67 nf!68))))

; forwards $main_inv2 (line 23)
(assert
  (forall ((num!72 Int) (name!79 Int) (substMap!76 Int) (oldArgs!70 Int) (hasClashResult!78 Int) (oldArg!77 Int) (var!74 Int) (functionsToCheck!69 Int) (found!80 Int) (i!73 Int) (newArgs!75 Int) (nf!81 Int) (res!71 Int))
    (=> (and ($main_sum3 functionsToCheck!69 oldArgs!70 res!71 num!72 i!73 var!74 newArgs!75 substMap!76 oldArg!77 hasClashResult!78 name!79 found!80 nf!81))
        ($main_inv2 functionsToCheck!69 oldArgs!70 res!71 num!72 i!73 var!74 (+ newArgs!75 1) (+ substMap!76 1) (+ oldArg!77 1) hasClashResult!78 name!79 found!80 nf!81))))

; if then
(assert
  (forall ((oldArgs!18 Int) (functionsToCheck!17 Int) (var!22 Int) (num!85 Int) (found!28 Int) (hasClashResult!91 Int) (name!27 Int) (name!92 Int) (found!93 Int) (i!86 Int) (res!19 Int) (hasClashResult!26 Int) (var!87 Int) (res!84 Int) (nf!94 Int) (nf!29 Int) (substMap!89 Int) (num!20 Int) (substMap!24 Int) (functionsToCheck!82 Int) (oldArgs!83 Int) (i!21 Int) (oldArg!25 Int) (newArgs!88 Int) (oldArg!90 Int) (newArgs!23 Int))
    (=> (and ($main_sum2 functionsToCheck!82 oldArgs!83 res!84 num!85 i!86 var!87 newArgs!88 substMap!89 oldArg!90 hasClashResult!91 name!92 found!93 nf!94))
        ($main_if3 functionsToCheck!17 oldArgs!18 res!19 num!20 i!21 var!22 newArgs!23 substMap!24 oldArg!25 hasClashResult!26 name!27 found!28 nf!29 functionsToCheck!82 oldArgs!83 (+ res!84 1) num!85 i!86 var!87 0 0 0 hasClashResult!91 name!92 found!93 nf!94))))

; if else
(assert
  (forall ((oldArgs!18 Int) (functionsToCheck!17 Int) (var!22 Int) (nf!29 Int) (found!28 Int) (name!27 Int) (i!21 Int) (oldArg!25 Int) (newArgs!23 Int) (res!19 Int) (hasClashResult!26 Int) (num!20 Int) (substMap!24 Int))
    (=> (and (not (> hasClashResult!26 0))
             (< i!21 functionsToCheck!17)
             ($main_inv1 functionsToCheck!17 oldArgs!18 res!19 num!20 i!21 var!22 newArgs!23 substMap!24 oldArg!25 hasClashResult!26 name!27 found!28 nf!29))
        ($main_if3 functionsToCheck!17 oldArgs!18 res!19 num!20 i!21 var!22 newArgs!23 substMap!24 oldArg!25 hasClashResult!26 name!27 found!28 nf!29 functionsToCheck!17 oldArgs!18 (+ res!19 1) num!20 i!21 var!22 newArgs!23 substMap!24 oldArg!25 hasClashResult!26 name!27 found!28 nf!29))))

; forwards $main_inv1 (line 20)
(assert
  (forall ((oldArgs!18 Int) (functionsToCheck!17 Int) (name!105 Int) (nf!29 Int) (i!21 Int) (oldArg!25 Int) (num!98 Int) (nf!107 Int) (res!97 Int) (oldArg!103 Int) (res!19 Int) (hasClashResult!26 Int) (functionsToCheck!95 Int) (var!100 Int) (var!22 Int) (found!28 Int) (found!106 Int) (num!20 Int) (substMap!24 Int) (name!27 Int) (hasClashResult!104 Int) (i!99 Int) (newArgs!23 Int) (substMap!102 Int) (oldArgs!96 Int) (newArgs!101 Int))
    (=> (and ($main_if3 functionsToCheck!17 oldArgs!18 res!19 num!20 i!21 var!22 newArgs!23 substMap!24 oldArg!25 hasClashResult!26 name!27 found!28 nf!29 functionsToCheck!95 oldArgs!96 res!97 num!98 i!99 var!100 newArgs!101 substMap!102 oldArg!103 hasClashResult!104 name!105 found!106 nf!107))
        ($main_inv1 functionsToCheck!95 oldArgs!96 res!97 num!98 (+ i!99 1) var!100 newArgs!101 substMap!102 oldArg!103 hasClashResult!104 name!105 found!106 nf!107))))

; VERIFIER_assert (< var!113 5)
(assert
  (forall ((nf!120 Int) (hasClashResult!117 Int) (oldArgs!109 Int) (functionsToCheck!108 Int) (var!113 Int) (newArgs!114 Int) (i!112 Int) (oldArg!116 Int) (num!111 Int) (substMap!115 Int) (found!119 Int) (res!110 Int) (name!118 Int))
    (=> (and (not (< var!113 5))
             ($main_sum1 functionsToCheck!108 oldArgs!109 res!110 num!111 i!112 var!113 newArgs!114 substMap!115 oldArg!116 hasClashResult!117 name!118 found!119 nf!120))
        false)))

(check-sat)
